solution status: user interrupt
objective value:                     147464.572225448
d11(0,0)                                            1 	(obj:0)
d11(2,3)                                            1 	(obj:0)
d11(2,4)                                            1 	(obj:0)
d11(2,5)                                            1 	(obj:0)
d11(3,7)                                            1 	(obj:0)
d11(3,8)                                            1 	(obj:0)
d11(3,9)                                            1 	(obj:0)
d11(3,11)                                           1 	(obj:0)
d11(3,12)                                           1 	(obj:0)
d11(3,13)                                           1 	(obj:0)
d11(3,14)                                           1 	(obj:0)
d11(4,15)                                           1 	(obj:0)
d11(4,16)                                           1 	(obj:0)
d11(4,17)                                           1 	(obj:0)
d11(4,18)                                           1 	(obj:0)
d11(4,19)                                           1 	(obj:0)
d11(4,20)                                           1 	(obj:0)
d11(4,21)                                           1 	(obj:0)
d11(4,22)                                           1 	(obj:0)
d11(4,23)                                           1 	(obj:0)
d11(4,24)                                           1 	(obj:0)
d11(4,25)                                           1 	(obj:0)
d11(4,26)                                           1 	(obj:0)
d11(4,27)                                           1 	(obj:0)
d11(4,28)                                           1 	(obj:0)
d11(4,29)                                           1 	(obj:0)
d11(4,30)                                           1 	(obj:0)
d12(1,1)                                            1 	(obj:0)
d12(1,2)                                            1 	(obj:0)
d21(3,7)                                            1 	(obj:0)
d21(4,15)                                           1 	(obj:0)
d21(4,16)                                           1 	(obj:0)
d21(4,17)                                           1 	(obj:0)
d21(4,19)                                           1 	(obj:0)
d21(4,23)                                           1 	(obj:0)
d21(4,24)                                           1 	(obj:0)
d21(4,25)                                           1 	(obj:0)
d21(4,27)                                           1 	(obj:0)
STE(1,1)                             14888.2498988888 	(obj:0)
STE(0,0)                                        15750 	(obj:0)
STE(1,2)                             16306.0535624388 	(obj:0)
STE(2,3)                                        11970 	(obj:0)
STE(2,4)                             13628.2498988888 	(obj:0)
STE(2,5)                             13387.8036635499 	(obj:0)
STE(2,6)                             15046.0535624388 	(obj:0)
STE(3,7)                             9051.75010111118 	(obj:0)
STE(3,8)                                        10710 	(obj:0)
STE(3,9)                                        10710 	(obj:0)
STE(3,10)                            12368.2498988888 	(obj:0)
STE(3,11)                            10469.5537646611 	(obj:0)
STE(3,12)                              12127.80366355 	(obj:0)
STE(3,13)                            12127.8036635499 	(obj:0)
STE(3,14)                            13786.0535624388 	(obj:0)
STE(4,15)                            6133.50020222237 	(obj:0)
STE(4,16)                            7791.75010111118 	(obj:0)
STE(4,17)                            7791.75010111118 	(obj:0)
STE(4,18)                                        9450 	(obj:0)
STE(4,19)                            7791.75010111118 	(obj:0)
STE(4,20)                                        9450 	(obj:0)
STE(4,21)                                        9450 	(obj:0)
STE(4,22)                            11108.2498988888 	(obj:0)
STE(4,23)                            7551.30386577229 	(obj:0)
STE(4,24)                            9209.55376466111 	(obj:0)
STE(4,25)                            9209.55376466117 	(obj:0)
STE(4,26)                              10867.80366355 	(obj:0)
STE(4,27)                            9209.55376466112 	(obj:0)
STE(4,28)                            10867.8036635499 	(obj:0)
STE(4,29)                            10867.8036635499 	(obj:0)
STE(4,30)                            12526.0535624388 	(obj:0)
y1(3,11)                             1492.42490899994 	(obj:0)
y1(3,13)                             1492.42490899994 	(obj:0)
y1(4,15)                             1492.42490899994 	(obj:0)
y1(4,17)                             1492.42490899994 	(obj:0)
y1(4,19)                             1492.42490899994 	(obj:0)
y1(4,21)                             1492.42490899994 	(obj:0)
y1(4,23)                             1492.42490899994 	(obj:0)
y1(4,25)                             1492.42490899994 	(obj:0)
y1(4,27)                             1492.42490899994 	(obj:0)
y1(4,29)                             1492.42490899994 	(obj:0)
WB(1)                                3265.91696791192 	(obj:0)
AVE(1)                               3265.91696791192 	(obj:0)
WB(2)                                3332.74178563731 	(obj:0)
AVE(2)                               3332.74178563731 	(obj:0)
WB(3)                                3444.11697932125 	(obj:0)
AVE(3)                               3444.11697932125 	(obj:0)
AVE(4)                               3399.56511093778 	(obj:0)
WG(4)                                3399.56511093781 	(obj:10)
BG(1)                                2157.57972560497 	(obj:10)
BG(2)                                4196.29249897957 	(obj:10)
BG(3)                                4196.29249897959 	(obj:10)
BG(4)                                796.727388041754 	(obj:10)
y1(2,3)                              1492.42490899994 	(obj:0)
y1(2,5)                              1492.42490899995 	(obj:0)
y1(3,7)                              1492.42490899994 	(obj:0)
y1(3,9)                              1492.42490899994 	(obj:0)
y2(1,1)                              419.210419882966 	(obj:0)
y2(1,2)                               1911.6353288829 	(obj:0)
